17	4	3
26	21	25	21	29	23	30	
0	0	0	0	0	4	6	1	6	9	8	3	2	3	4
2	3	0	0	3	10	4	5	8	10	8	1	17
9	6	5	10	1	3	1	9	3	10	2	1	9
8	7	9	6	4	3	5	7	2	5	5	2	5	13
6	9	1	9	8	5	7	6	6	7	1	3	6	7	17
50	5	3	2	0	7	1	6	7	6	5	3	10	14	17
75	0	1	9	7	5	6	8	10	4	7	2	8	17
225	5	1	10	3	8	7	8	6	9	8	3	11	12	15
225	5	0	7	2	7	1	2	3	3	7	2	10	17
100	7	5	3	6	8	7	3	3	3	10	2	15	17
150	0	8	7	10	4	10	10	10	7	6	1	17
125	10	6	10	9	5	1	1	2	1	4	1	17
10	4	2	4	10	9	8	10	7	4	8	1	17
8	10	4	3	8	4	1	9	6	4	1	2	16	17
2	3	5	3	0	2	1	7	5	4	10	1	17
9	6	5	2	0	4	8	9	4	7	5	1	17
0	0	0	0	0	9	1	6	10	3	7	0
